# Objective value = 1.4810078892993934e+04
Slot(FER603M,1) 1
Slot(RAF403G,1) 1
Slot(LIF412M,1) 1
Slot(LEF617M,1) 1
Slot(VEL202G,1) 1
Slot(STA403M,1) 1
Slot(LAN205G,1) 1
Slot(TOL403G,1) 1
Slot(BYG202M,1) 1

Slot(RAF401G,2) 1
Slot(STA207G,2) 1
Slot(STA401G,2) 1
Slot(HBV601G,2) 1
Slot(JED201G,2) 1
Slot(EFN406G,2) 1
Slot(FER208G,2) 1
Slot(JAR619G,2) 1


Slot(TOL203F,3) 1
Slot(IDN209F,3) 1
Slot(STA405G,3) 1
Slot(RAF616M,3) 1
Slot(LIF201G,3) 1
Slot(REI201G,3) 1
Slot(EFN207G,3) 1
Slot(BYG203M,3) 1
Slot(JAR611G,3) 1
Slot(LIF614M,3) 1
Slot(LAN401G,3) 1


Slot(HBV401G,4) 1
Slot(EFN205G,4) 1
Slot(EFN214G,4) 1
Slot(VEL218F,4) 1
Slot(EFN202G,4) 1
Slot(HBV402G,4) 1
Slot(STA411G,4) 1
Slot(BYG201M,4) 1


Slot(TOL401G,5) 1
Slot(JAR417G,5) 1
Slot(IDN403G,5) 1
Slot(LIF635G,5) 1
Slot(EDL402G,5) 1
Slot(RAF601G,5) 1
Slot(BYG601G,5) 1
Slot(JAR202G,5) 1
Slot(UMV203G,5) 1
Slot(LAN219G,5) 1
Slot(STA418M,5) 1
Slot(RAF404G,5) 1
Slot(EDL205G,5) 1
Slot(EFN408G,5) 1
Slot(EFN612M,5) 1



Slot(JAR253F,6) 1
Slot(UAU214M,6) 1
Slot(EDL403G,6) 1
Slot(EFN410G,6) 1
Slot(IDN603G,6) 1
Slot(LIF615M,6) 1
Slot(RAF201G,6) 1
Slot(JAR212G,6) 1
Slot(LIF403G,6) 1
Slot(HBV203F,6) 1
Slot(VEL401G,6) 1
Slot(FER609G,6) 1
Slot(FER211F,6) 1
Slot(UMV201G,6) 1
Slot(TOL203M,6) 1
Slot(VEL215F,6) 1
Slot(EDL203G,6) 1


Slot(JAR211G,7) 1
Slot(FER409G,7) 1
Slot(FER210F,7) 1
Slot(STA203G,7) 1
Slot(MAS201F,7) 1
Slot(JAR617G,7) 1


Slot(BYG603G,8) 1
Slot(TOL203G,8) 1
Slot(EDL204G,8) 1
Slot(LEF616M,8) 1
Slot(LIF215G,8) 1
Slot(VEL201G,8) 1



Slot(LEF406G,9) 1
Slot(LAN203G,9) 1
Slot(STA209G,9) 1
Slot(BYG401G,9) 1
Slot(LIF410G,9) 1
Slot(LIF243F,9) 1
Slot(IDN401G,9) 1
Slot(UMV203M,9) 1



Slot(UMV213F,10) 1
Slot(BYG201G,10) 1
Slot(LIF633G,10) 1
Slot(LIF227F,10) 1
Slot(EFN404G,10) 1
Slot(EDL612M,10) 1
Slot(HBV201G,10) 1
Slot(EDL201G,10) 1
Slot(EDL402M,10) 1



Slot(EDL206G,10) 1
Slot(STA202G,11) 1
Slot(LIF401G,11) 1
Slot(LAN604M,11) 1
Slot(STA205G,11) 1
Slot(TOV602M,11) 1
Slot(UAU206M,11) 1
Slot(TOL202M,11) 1
Slot(JAR415G,11) 1
Slot(VEL405G,11) 1


Slot(VEL601G,12) 1
Slot(JAR418G,12) 1
Slot(LAN410G,12) 1
Slot(LAN209F,12) 1
Slot(TOV201G,12) 1
Slot(EFN208G,12) 1


Slot(REI202M,13) 1
Slot(LIF214G,13) 1
Slot(VEL402G,13) 1
Slot(RAF402G,13) 1
Slot(EDL401G,13) 1
Slot(IDN402G,13) 1


fjoldinemaiprofstokki(1) 450
fjoldinemaiprofstokki(2) 450
fjoldinemaiprofstokki(3) 450
fjoldinemaiprofstokki(4) 450
fjoldinemaiprofstokki(5) 450
fjoldinemaiprofstokki(6) 449
fjoldinemaiprofstokki(7) 448
fjoldinemaiprofstokki(8) 450
fjoldinemaiprofstokki(9) 448
fjoldinemaiprofstokki(10) 449
fjoldinemaiprofstokki(11) 450
fjoldinemaiprofstokki(12) 448
fjoldinemaiprofstokki(13) 182
